SYSTEM=LIF
NELM=200
EDIFF=1E-4
LREAL=Auto
LWAVE=F
LCHARG=F
IVDW=12
LSTRESS=T
ISTRESS=1
KPAR=1
NCORE=1
NSIM=1
ALGO=Fast